65
1 0 7
2 0 9
2 1 1
3 0 9
3 1 8
3 2 3
4 0 9
4 1 4
4 2 10
4 3 6
5 0 8
5 1 2
5 2 4
5 3 4
5 4 3
6 0 4
6 1 2
6 2 3
6 3 2
6 4 6
6 5 2
7 0 1
7 1 5
7 2 4
7 3 2
7 4 6
7 5 4
7 6 2
8 0 8
8 1 9
8 2 10
8 3 1
8 4 8
8 5 10
8 6 10
8 7 7
9 0 1
9 1 7
9 2 4
9 3 10
9 4 1
9 5 9
9 6 5
9 7 2
9 8 10
10 0 3
10 1 2
10 2 1
10 3 2
10 4 5
10 5 2
10 6 2
10 7 10
10 8 5
10 9 5
11 0 6
11 1 3
11 2 1
11 3 10
11 4 2
11 5 9
11 6 9
11 7 9
11 8 7
11 9 3
11 10 4
12 0 10
12 1 4
12 2 10
12 3 3
12 4 9
12 5 5
12 6 3
12 7 7
12 8 9
12 9 6
12 10 8
12 11 9
13 0 3
13 1 6
13 2 6
13 3 5
13 4 8
13 5 3
13 6 10
13 7 2
13 8 10
13 9 1
13 10 4
13 11 6
13 12 5
14 0 1
14 1 5
14 2 8
14 3 9
14 4 1
14 5 8
14 6 9
14 7 6
14 8 8
14 9 9
14 10 5
14 11 1
14 12 9
14 13 5
15 0 5
15 1 6
15 2 7
15 3 1
15 4 3
15 5 9
15 6 2
15 7 6
15 8 9
15 9 4
15 10 2
15 11 9
15 12 5
15 13 4
15 14 6
16 0 2
16 1 2
16 2 7
16 3 1
16 4 4
16 5 5
16 6 2
16 7 8
16 8 5
16 9 8
16 10 5
16 11 2
16 12 8
16 13 7
16 14 3
16 15 5
17 0 7
17 1 5
17 2 6
17 3 4
17 4 6
17 5 7
17 6 8
17 7 4
17 8 9
17 9 8
17 10 9
17 11 9
17 12 7
17 13 4
17 14 2
17 15 9
17 16 8
18 0 3
18 1 4
18 2 2
18 3 3
18 4 7
18 5 2
18 6 4
18 7 4
18 8 7
18 9 1
18 10 3
18 11 1
18 12 10
18 13 8
18 14 9
18 15 1
18 16 8
18 17 3
19 0 3
19 1 2
19 2 8
19 3 1
19 4 2
19 5 2
19 6 10
19 7 3
19 8 6
19 9 10
19 10 5
19 11 4
19 12 7
19 13 8
19 14 2
19 15 2
19 16 4
19 17 5
19 18 4
20 0 5
20 1 5
20 2 3
20 3 6
20 4 9
20 5 4
20 6 5
20 7 9
20 8 6
20 9 8
20 10 2
20 11 7
20 12 5
20 13 6
20 14 8
20 15 2
20 16 9
20 17 7
20 18 2
20 19 8
21 0 3
21 1 4
21 2 3
21 3 3
21 4 8
21 5 4
21 6 8
21 7 10
21 8 4
21 9 3
21 10 8
21 11 4
21 12 9
21 13 4
21 14 1
21 15 6
21 16 7
21 17 2
21 18 10
21 19 1
21 20 10
22 0 6
22 1 8
22 2 9
22 3 1
22 4 6
22 5 3
22 6 9
22 7 6
22 8 9
22 9 6
22 10 9
22 11 5
22 12 6
22 13 9
22 14 2
22 15 6
22 16 2
22 17 2
22 18 5
22 19 1
22 20 3
22 21 4
23 0 3
23 1 1
23 2 6
23 3 6
23 4 2
23 5 6
23 6 4
23 7 9
23 8 3
23 9 2
23 10 10
23 11 9
23 12 7
23 13 2
23 14 5
23 15 5
23 16 8
23 17 3
23 18 2
23 19 1
23 20 1
23 21 5
23 22 6
24 0 6
24 1 6
24 2 5
24 3 7
24 4 6
24 5 4
24 6 6
24 7 10
24 8 9
24 9 4
24 10 8
24 11 9
24 12 6
24 13 5
24 14 6
24 15 10
24 16 3
24 17 5
24 18 5
24 19 4
24 20 4
24 21 4
24 22 8
24 23 1
25 0 8
25 1 8
25 2 2
25 3 7
25 4 1
25 5 10
25 6 3
25 7 1
25 8 8
25 9 7
25 10 6
25 11 5
25 12 5
25 13 7
25 14 3
25 15 9
25 16 10
25 17 7
25 18 6
25 19 1
25 20 3
25 21 9
25 22 5
25 23 10
25 24 4
26 0 6
26 1 6
26 2 8
26 3 3
26 4 10
26 5 9
26 6 9
26 7 9
26 8 6
26 9 2
26 10 3
26 11 7
26 12 6
26 13 3
26 14 3
26 15 3
26 16 10
26 17 3
26 18 1
26 19 8
26 20 1
26 21 4
26 22 5
26 23 9
26 24 6
26 25 7
27 0 1
27 1 8
27 2 4
27 3 3
27 4 3
27 5 4
27 6 5
27 7 6
27 8 9
27 9 4
27 10 3
27 11 3
27 12 1
27 13 2
27 14 5
27 15 10
27 16 7
27 17 5
27 18 6
27 19 1
27 20 3
27 21 2
27 22 2
27 23 1
27 24 7
27 25 4
27 26 6
28 0 7
28 1 6
28 2 3
28 3 2
28 4 1
28 5 8
28 6 6
28 7 9
28 8 5
28 9 7
28 10 2
28 11 5
28 12 5
28 13 10
28 14 3
28 15 7
28 16 7
28 17 1
28 18 5
28 19 6
28 20 7
28 21 2
28 22 8
28 23 10
28 24 9
28 25 4
28 26 8
28 27 10
29 0 5
29 1 4
29 2 7
29 3 4
29 4 10
29 5 4
29 6 6
29 7 6
29 8 2
29 9 8
29 10 9
29 11 7
29 12 3
29 13 9
29 14 2
29 15 2
29 16 3
29 17 8
29 18 4
29 19 1
29 20 1
29 21 8
29 22 4
29 23 6
29 24 10
29 25 7
29 26 1
29 27 4
29 28 4
30 0 8
30 1 6
30 2 7
30 3 3
30 4 9
30 5 1
30 6 2
30 7 4
30 8 9
30 9 4
30 10 5
30 11 10
30 12 5
30 13 9
30 14 1
30 15 6
30 16 1
30 17 7
30 18 2
30 19 2
30 20 3
30 21 4
30 22 6
30 23 5
30 24 4
30 25 2
30 26 3
30 27 1
30 28 6
30 29 4
31 0 5
31 1 9
31 2 7
31 3 3
31 4 8
31 5 7
31 6 4
31 7 3
31 8 4
31 9 7
31 10 2
31 11 5
31 12 5
31 13 7
31 14 10
31 15 4
31 16 3
31 17 6
31 18 1
31 19 4
31 20 1
31 21 9
31 22 7
31 23 8
31 24 9
31 25 9
31 26 4
31 27 10
31 28 5
31 29 4
31 30 4
32 0 8
32 1 9
32 2 2
32 3 10
32 4 3
32 5 3
32 6 2
32 7 6
32 8 5
32 9 7
32 10 2
32 11 3
32 12 1
32 13 4
32 14 10
32 15 9
32 16 1
32 17 3
32 18 10
32 19 2
32 20 3
32 21 5
32 22 2
32 23 7
32 24 4
32 25 6
32 26 9
32 27 9
32 28 7
32 29 6
32 30 7
32 31 1
33 0 5
33 1 9
33 2 4
33 3 2
33 4 10
33 5 10
33 6 6
33 7 6
33 8 3
33 9 7
33 10 2
33 11 9
33 12 3
33 13 8
33 14 6
33 15 3
33 16 10
33 17 1
33 18 8
33 19 2
33 20 8
33 21 7
33 22 3
33 23 6
33 24 1
33 25 8
33 26 5
33 27 7
33 28 6
33 29 5
33 30 6
33 31 8
33 32 9
34 0 1
34 1 8
34 2 5
34 3 6
34 4 8
34 5 6
34 6 7
34 7 5
34 8 7
34 9 4
34 10 5
34 11 3
34 12 5
34 13 3
34 14 7
34 15 9
34 16 2
34 17 2
34 18 10
34 19 6
34 20 9
34 21 10
34 22 10
34 23 2
34 24 4
34 25 5
34 26 8
34 27 4
34 28 3
34 29 1
34 30 8
34 31 1
34 32 5
34 33 9
35 0 7
35 1 8
35 2 5
35 3 1
35 4 4
35 5 9
35 6 9
35 7 7
35 8 3
35 9 1
35 10 7
35 11 10
35 12 8
35 13 8
35 14 8
35 15 5
35 16 9
35 17 4
35 18 8
35 19 7
35 20 2
35 21 3
35 22 2
35 23 2
35 24 6
35 25 2
35 26 8
35 27 10
35 28 10
35 29 3
35 30 5
35 31 3
35 32 7
35 33 2
35 34 1
36 0 9
36 1 3
36 2 8
36 3 9
36 4 9
36 5 6
36 6 7
36 7 6
36 8 4
36 9 5
36 10 1
36 11 4
36 12 9
36 13 2
36 14 1
36 15 7
36 16 1
36 17 4
36 18 6
36 19 10
36 20 6
36 21 8
36 22 4
36 23 8
36 24 9
36 25 6
36 26 2
36 27 5
36 28 4
36 29 10
36 30 6
36 31 7
36 32 6
36 33 10
36 34 1
36 35 10
37 0 8
37 1 5
37 2 7
37 3 8
37 4 10
37 5 8
37 6 1
37 7 1
37 8 6
37 9 2
37 10 2
37 11 2
37 12 1
37 13 4
37 14 6
37 15 2
37 16 7
37 17 9
37 18 6
37 19 10
37 20 1
37 21 4
37 22 3
37 23 3
37 24 7
37 25 3
37 26 3
37 27 7
37 28 4
37 29 8
37 30 8
37 31 1
37 32 1
37 33 3
37 34 3
37 35 5
37 36 1
38 0 8
38 1 7
38 2 1
38 3 7
38 4 10
38 5 6
38 6 6
38 7 8
38 8 8
38 9 5
38 10 8
38 11 3
38 12 9
38 13 4
38 14 7
38 15 8
38 16 9
38 17 7
38 18 4
38 19 2
38 20 2
38 21 10
38 22 6
38 23 5
38 24 3
38 25 4
38 26 1
38 27 1
38 28 6
38 29 2
38 30 3
38 31 5
38 32 3
38 33 4
38 34 1
38 35 9
38 36 10
38 37 4
39 0 1
39 1 6
39 2 3
39 3 1
39 4 8
39 5 8
39 6 2
39 7 4
39 8 8
39 9 6
39 10 3
39 11 9
39 12 4
39 13 9
39 14 5
39 15 3
39 16 6
39 17 1
39 18 2
39 19 6
39 20 6
39 21 10
39 22 8
39 23 7
39 24 1
39 25 7
39 26 1
39 27 10
39 28 6
39 29 7
39 30 8
39 31 7
39 32 3
39 33 7
39 34 5
39 35 1
39 36 10
39 37 4
39 38 5
40 0 1
40 1 9
40 2 6
40 3 3
40 4 8
40 5 5
40 6 1
40 7 9
40 8 3
40 9 1
40 10 4
40 11 2
40 12 1
40 13 8
40 14 3
40 15 10
40 16 2
40 17 10
40 18 3
40 19 7
40 20 6
40 21 4
40 22 9
40 23 10
40 24 1
40 25 7
40 26 2
40 27 9
40 28 6
40 29 2
40 30 6
40 31 10
40 32 8
40 33 7
40 34 3
40 35 9
40 36 6
40 37 10
40 38 8
40 39 1
41 0 9
41 1 9
41 2 6
41 3 4
41 4 7
41 5 6
41 6 1
41 7 5
41 8 6
41 9 3
41 10 7
41 11 9
41 12 7
41 13 10
41 14 9
41 15 5
41 16 5
41 17 9
41 18 2
41 19 6
41 20 2
41 21 9
41 22 6
41 23 5
41 24 5
41 25 5
41 26 4
41 27 5
41 28 6
41 29 5
41 30 3
41 31 3
41 32 9
41 33 10
41 34 4
41 35 4
41 36 10
41 37 4
41 38 9
41 39 10
41 40 8
42 0 1
42 1 1
42 2 6
42 3 8
42 4 9
42 5 6
42 6 8
42 7 5
42 8 2
42 9 2
42 10 4
42 11 9
42 12 4
42 13 7
42 14 6
42 15 8
42 16 8
42 17 10
42 18 7
42 19 2
42 20 2
42 21 2
42 22 5
42 23 1
42 24 5
42 25 4
42 26 9
42 27 6
42 28 9
42 29 5
42 30 6
42 31 7
42 32 9
42 33 1
42 34 5
42 35 5
42 36 2
42 37 8
42 38 6
42 39 8
42 40 1
42 41 6
43 0 5
43 1 10
43 2 5
43 3 5
43 4 1
43 5 8
43 6 1
43 7 1
43 8 3
43 9 10
43 10 9
43 11 4
43 12 1
43 13 10
43 14 3
43 15 7
43 16 3
43 17 7
43 18 1
43 19 8
43 20 3
43 21 4
43 22 5
43 23 2
43 24 3
43 25 4
43 26 8
43 27 7
43 28 2
43 29 2
43 30 4
43 31 2
43 32 9
43 33 8
43 34 5
43 35 7
43 36 3
43 37 10
43 38 1
43 39 9
43 40 10
43 41 3
43 42 6
44 0 9
44 1 3
44 2 5
44 3 4
44 4 8
44 5 5
44 6 1
44 7 1
44 8 9
44 9 6
44 10 7
44 11 9
44 12 2
44 13 3
44 14 7
44 15 9
44 16 7
44 17 7
44 18 7
44 19 6
44 20 3
44 21 4
44 22 9
44 23 2
44 24 3
44 25 8
44 26 3
44 27 3
44 28 2
44 29 8
44 30 3
44 31 5
44 32 5
44 33 3
44 34 3
44 35 4
44 36 6
44 37 1
44 38 2
44 39 5
44 40 7
44 41 5
44 42 1
44 43 5
45 0 2
45 1 5
45 2 9
45 3 6
45 4 9
45 5 5
45 6 4
45 7 8
45 8 6
45 9 6
45 10 8
45 11 5
45 12 9
45 13 2
45 14 8
45 15 3
45 16 9
45 17 10
45 18 9
45 19 3
45 20 4
45 21 8
45 22 7
45 23 1
45 24 5
45 25 2
45 26 9
45 27 4
45 28 3
45 29 2
45 30 10
45 31 3
45 32 6
45 33 6
45 34 6
45 35 8
45 36 4
45 37 9
45 38 1
45 39 4
45 40 8
45 41 9
45 42 9
45 43 8
45 44 1
46 0 6
46 1 7
46 2 1
46 3 5
46 4 3
46 5 6
46 6 2
46 7 2
46 8 7
46 9 9
46 10 2
46 11 9
46 12 10
46 13 4
46 14 3
46 15 4
46 16 5
46 17 2
46 18 9
46 19 3
46 20 3
46 21 4
46 22 2
46 23 1
46 24 2
46 25 7
46 26 3
46 27 1
46 28 10
46 29 5
46 30 4
46 31 5
46 32 4
46 33 2
46 34 10
46 35 3
46 36 4
46 37 4
46 38 1
46 39 4
46 40 9
46 41 7
46 42 5
46 43 3
46 44 3
46 45 1
47 0 10
47 1 6
47 2 2
47 3 2
47 4 2
47 5 6
47 6 4
47 7 10
47 8 2
47 9 6
47 10 3
47 11 5
47 12 5
47 13 4
47 14 3
47 15 4
47 16 8
47 17 10
47 18 7
47 19 7
47 20 10
47 21 9
47 22 2
47 23 9
47 24 10
47 25 2
47 26 3
47 27 2
47 28 10
47 29 4
47 30 9
47 31 7
47 32 6
47 33 9
47 34 2
47 35 7
47 36 3
47 37 5
47 38 3
47 39 10
47 40 9
47 41 2
47 42 9
47 43 7
47 44 10
47 45 10
47 46 3
48 0 2
48 1 2
48 2 2
48 3 8
48 4 1
48 5 5
48 6 5
48 7 7
48 8 9
48 9 3
48 10 4
48 11 8
48 12 1
48 13 1
48 14 6
48 15 7
48 16 9
48 17 5
48 18 10
48 19 4
48 20 8
48 21 6
48 22 3
48 23 10
48 24 7
48 25 6
48 26 5
48 27 4
48 28 9
48 29 2
48 30 6
48 31 3
48 32 9
48 33 9
48 34 4
48 35 10
48 36 4
48 37 5
48 38 6
48 39 3
48 40 6
48 41 8
48 42 10
48 43 10
48 44 7
48 45 3
48 46 3
48 47 5
49 0 3
49 1 6
49 2 10
49 3 8
49 4 8
49 5 5
49 6 8
49 7 4
49 8 2
49 9 3
49 10 7
49 11 6
49 12 2
49 13 10
49 14 10
49 15 2
49 16 1
49 17 7
49 18 1
49 19 10
49 20 10
49 21 9
49 22 10
49 23 9
49 24 10
49 25 1
49 26 7
49 27 4
49 28 6
49 29 6
49 30 5
49 31 2
49 32 5
49 33 4
49 34 4
49 35 9
49 36 2
49 37 5
49 38 7
49 39 5
49 40 1
49 41 1
49 42 2
49 43 7
49 44 9
49 45 7
49 46 6
49 47 3
49 48 7
50 0 4
50 1 10
50 2 4
50 3 10
50 4 5
50 5 5
50 6 4
50 7 7
50 8 9
50 9 3
50 10 8
50 11 6
50 12 5
50 13 9
50 14 3
50 15 8
50 16 8
50 17 8
50 18 2
50 19 5
50 20 10
50 21 1
50 22 10
50 23 7
50 24 4
50 25 7
50 26 5
50 27 8
50 28 7
50 29 3
50 30 10
50 31 6
50 32 10
50 33 3
50 34 9
50 35 9
50 36 3
50 37 2
50 38 9
50 39 8
50 40 9
50 41 9
50 42 8
50 43 2
50 44 1
50 45 9
50 46 2
50 47 3
50 48 8
50 49 1
51 0 8
51 1 9
51 2 2
51 3 9
51 4 8
51 5 5
51 6 6
51 7 10
51 8 5
51 9 7
51 10 8
51 11 7
51 12 4
51 13 1
51 14 2
51 15 1
51 16 6
51 17 8
51 18 1
51 19 1
51 20 5
51 21 5
51 22 5
51 23 4
51 24 5
51 25 2
51 26 8
51 27 10
51 28 7
51 29 6
51 30 8
51 31 3
51 32 2
51 33 8
51 34 9
51 35 10
51 36 1
51 37 5
51 38 4
51 39 1
51 40 10
51 41 5
51 42 6
51 43 7
51 44 4
51 45 6
51 46 9
51 47 6
51 48 8
51 49 9
51 50 1
52 0 10
52 1 2
52 2 8
52 3 9
52 4 10
52 5 10
52 6 3
52 7 2
52 8 4
52 9 3
52 10 10
52 11 8
52 12 1
52 13 4
52 14 2
52 15 7
52 16 3
52 17 10
52 18 8
52 19 1
52 20 6
52 21 8
52 22 1
52 23 9
52 24 5
52 25 9
52 26 2
52 27 4
52 28 8
52 29 2
52 30 7
52 31 9
52 32 6
52 33 9
52 34 3
52 35 9
52 36 8
52 37 10
52 38 4
52 39 3
52 40 3
52 41 9
52 42 8
52 43 5
52 44 5
52 45 8
52 46 7
52 47 7
52 48 1
52 49 10
52 50 8
52 51 10
53 0 3
53 1 9
53 2 2
53 3 4
53 4 4
53 5 1
53 6 1
53 7 2
53 8 7
53 9 2
53 10 6
53 11 10
53 12 1
53 13 1
53 14 2
53 15 8
53 16 5
53 17 3
53 18 7
53 19 9
53 20 4
53 21 6
53 22 2
53 23 9
53 24 10
53 25 1
53 26 5
53 27 4
53 28 8
53 29 10
53 30 9
53 31 2
53 32 6
53 33 1
53 34 4
53 35 3
53 36 10
53 37 10
53 38 2
53 39 9
53 40 10
53 41 6
53 42 3
53 43 5
53 44 6
53 45 1
53 46 2
53 47 6
53 48 6
53 49 5
53 50 9
53 51 1
53 52 10
54 0 8
54 1 1
54 2 10
54 3 7
54 4 1
54 5 2
54 6 5
54 7 9
54 8 4
54 9 3
54 10 3
54 11 6
54 12 1
54 13 9
54 14 9
54 15 10
54 16 8
54 17 10
54 18 8
54 19 9
54 20 5
54 21 2
54 22 1
54 23 4
54 24 4
54 25 6
54 26 1
54 27 3
54 28 4
54 29 5
54 30 7
54 31 9
54 32 3
54 33 8
54 34 5
54 35 6
54 36 5
54 37 9
54 38 4
54 39 6
54 40 7
54 41 3
54 42 5
54 43 10
54 44 1
54 45 5
54 46 6
54 47 8
54 48 2
54 49 8
54 50 7
54 51 3
54 52 3
54 53 7
55 0 10
55 1 5
55 2 5
55 3 7
55 4 1
55 5 3
55 6 6
55 7 3
55 8 3
55 9 5
55 10 4
55 11 7
55 12 8
55 13 10
55 14 3
55 15 10
55 16 10
55 17 5
55 18 5
55 19 8
55 20 5
55 21 9
55 22 9
55 23 6
55 24 10
55 25 8
55 26 2
55 27 1
55 28 6
55 29 6
55 30 7
55 31 8
55 32 6
55 33 10
55 34 8
55 35 1
55 36 8
55 37 7
55 38 7
55 39 10
55 40 2
55 41 9
55 42 9
55 43 9
55 44 6
55 45 7
55 46 2
55 47 9
55 48 10
55 49 4
55 50 7
55 51 3
55 52 4
55 53 8
55 54 9
56 0 10
56 1 4
56 2 10
56 3 9
56 4 1
56 5 6
56 6 4
56 7 3
56 8 2
56 9 7
56 10 4
56 11 1
56 12 8
56 13 10
56 14 8
56 15 6
56 16 2
56 17 6
56 18 2
56 19 2
56 20 6
56 21 3
56 22 7
56 23 8
56 24 1
56 25 4
56 26 3
56 27 10
56 28 2
56 29 3
56 30 7
56 31 8
56 32 7
56 33 10
56 34 3
56 35 3
56 36 10
56 37 2
56 38 7
56 39 9
56 40 2
56 41 3
56 42 1
56 43 4
56 44 6
56 45 3
56 46 4
56 47 10
56 48 1
56 49 8
56 50 9
56 51 5
56 52 6
56 53 2
56 54 4
56 55 1
57 0 4
57 1 5
57 2 1
57 3 10
57 4 1
57 5 10
57 6 4
57 7 5
57 8 10
57 9 7
57 10 10
57 11 7
57 12 5
57 13 6
57 14 6
57 15 10
57 16 3
57 17 2
57 18 7
57 19 9
57 20 1
57 21 2
57 22 4
57 23 1
57 24 7
57 25 9
57 26 10
57 27 6
57 28 4
57 29 4
57 30 1
57 31 1
57 32 2
57 33 2
57 34 1
57 35 10
57 36 10
57 37 9
57 38 1
57 39 4
57 40 3
57 41 1
57 42 9
57 43 10
57 44 2
57 45 4
57 46 2
57 47 1
57 48 7
57 49 7
57 50 7
57 51 4
57 52 10
57 53 8
57 54 6
57 55 7
57 56 7
58 0 1
58 1 1
58 2 2
58 3 1
58 4 6
58 5 3
58 6 10
58 7 8
58 8 3
58 9 1
58 10 1
58 11 4
58 12 7
58 13 10
58 14 7
58 15 2
58 16 3
58 17 1
58 18 1
58 19 9
58 20 5
58 21 9
58 22 2
58 23 6
58 24 5
58 25 6
58 26 10
58 27 8
58 28 4
58 29 9
58 30 4
58 31 1
58 32 10
58 33 10
58 34 10
58 35 4
58 36 10
58 37 5
58 38 7
58 39 2
58 40 9
58 41 8
58 42 9
58 43 9
58 44 6
58 45 1
58 46 8
58 47 9
58 48 8
58 49 1
58 50 3
58 51 3
58 52 10
58 53 6
58 54 1
58 55 6
58 56 3
58 57 5
59 0 3
59 1 3
59 2 2
59 3 10
59 4 5
59 5 3
59 6 1
59 7 8
59 8 6
59 9 1
59 10 3
59 11 8
59 12 1
59 13 1
59 14 8
59 15 9
59 16 7
59 17 10
59 18 1
59 19 4
59 20 9
59 21 8
59 22 6
59 23 5
59 24 9
59 25 7
59 26 3
59 27 2
59 28 10
59 29 1
59 30 6
59 31 1
59 32 9
59 33 2
59 34 5
59 35 4
59 36 2
59 37 1
59 38 3
59 39 5
59 40 4
59 41 5
59 42 4
59 43 3
59 44 6
59 45 6
59 46 1
59 47 3
59 48 9
59 49 6
59 50 1
59 51 3
59 52 2
59 53 8
59 54 8
59 55 10
59 56 3
59 57 4
59 58 7
60 0 5
60 1 6
60 2 6
60 3 4
60 4 8
60 5 6
60 6 6
60 7 7
60 8 4
60 9 8
60 10 6
60 11 3
60 12 5
60 13 5
60 14 10
60 15 9
60 16 7
60 17 5
60 18 4
60 19 4
60 20 7
60 21 4
60 22 2
60 23 3
60 24 3
60 25 4
60 26 7
60 27 8
60 28 5
60 29 6
60 30 4
60 31 6
60 32 4
60 33 8
60 34 7
60 35 10
60 36 4
60 37 1
60 38 8
60 39 7
60 40 7
60 41 6
60 42 7
60 43 6
60 44 10
60 45 7
60 46 2
60 47 1
60 48 10
60 49 4
60 50 3
60 51 2
60 52 1
60 53 2
60 54 3
60 55 6
60 56 10
60 57 1
60 58 6
60 59 8
61 0 4
61 1 10
61 2 10
61 3 1
61 4 9
61 5 1
61 6 5
61 7 7
61 8 2
61 9 3
61 10 6
61 11 4
61 12 5
61 13 6
61 14 7
61 15 5
61 16 10
61 17 2
61 18 6
61 19 6
61 20 2
61 21 6
61 22 6
61 23 5
61 24 9
61 25 7
61 26 2
61 27 7
61 28 7
61 29 2
61 30 3
61 31 5
61 32 3
61 33 2
61 34 1
61 35 3
61 36 9
61 37 6
61 38 9
61 39 6
61 40 7
61 41 5
61 42 10
61 43 1
61 44 6
61 45 5
61 46 5
61 47 2
61 48 3
61 49 7
61 50 7
61 51 8
61 52 1
61 53 4
61 54 7
61 55 10
61 56 7
61 57 8
61 58 6
61 59 4
61 60 9
62 0 3
62 1 9
62 2 9
62 3 3
62 4 7
62 5 1
62 6 9
62 7 1
62 8 10
62 9 4
62 10 3
62 11 6
62 12 1
62 13 8
62 14 8
62 15 9
62 16 10
62 17 10
62 18 1
62 19 5
62 20 1
62 21 8
62 22 3
62 23 3
62 24 7
62 25 9
62 26 6
62 27 2
62 28 9
62 29 9
62 30 10
62 31 7
62 32 1
62 33 7
62 34 2
62 35 2
62 36 4
62 37 4
62 38 1
62 39 1
62 40 6
62 41 10
62 42 3
62 43 6
62 44 9
62 45 1
62 46 8
62 47 7
62 48 9
62 49 8
62 50 4
62 51 5
62 52 8
62 53 9
62 54 3
62 55 2
62 56 4
62 57 6
62 58 9
62 59 4
62 60 9
62 61 1
63 0 5
63 1 9
63 2 8
63 3 3
63 4 1
63 5 3
63 6 7
63 7 7
63 8 7
63 9 8
63 10 8
63 11 3
63 12 5
63 13 6
63 14 5
63 15 8
63 16 10
63 17 3
63 18 10
63 19 2
63 20 6
63 21 9
63 22 1
63 23 6
63 24 6
63 25 5
63 26 6
63 27 1
63 28 3
63 29 9
63 30 7
63 31 1
63 32 4
63 33 6
63 34 6
63 35 4
63 36 10
63 37 4
63 38 3
63 39 9
63 40 9
63 41 1
63 42 5
63 43 9
63 44 4
63 45 3
63 46 6
63 47 6
63 48 3
63 49 9
63 50 9
63 51 10
63 52 6
63 53 7
63 54 4
63 55 2
63 56 8
63 57 8
63 58 1
63 59 4
63 60 8
63 61 4
63 62 4
64 0 7
64 1 8
64 2 10
64 3 8
64 4 6
64 5 7
64 6 5
64 7 3
64 8 8
64 9 1
64 10 8
64 11 6
64 12 9
64 13 8
64 14 3
64 15 7
64 16 10
64 17 8
64 18 10
64 19 9
64 20 5
64 21 3
64 22 10
64 23 2
64 24 2
64 25 1
64 26 7
64 27 8
64 28 2
64 29 2
64 30 3
64 31 1
64 32 3
64 33 1
64 34 10
64 35 9
64 36 6
64 37 5
64 38 1
64 39 8
64 40 1
64 41 2
64 42 7
64 43 3
64 44 4
64 45 6
64 46 8
64 47 10
64 48 10
64 49 9
64 50 5
64 51 3
64 52 2
64 53 10
64 54 4
64 55 8
64 56 7
64 57 7
64 58 6
64 59 4
64 60 8
64 61 3
64 62 8
64 63 3
